(set-logic QF_UF)
(declare-fun A0 () Bool)
(declare-fun A1 () Bool)
(declare-fun A2 () Bool)
(declare-fun A3 () Bool)
(declare-fun A4 () Bool)
(declare-fun A5 () Bool)
(declare-fun A6 () Bool)
(declare-fun A7 () Bool)
(declare-fun A8 () Bool)
(declare-fun A9 () Bool)
(declare-fun A10 () Bool)
(declare-fun A11 () Bool)
(declare-fun A12 () Bool)
(declare-fun A13 () Bool)
(declare-fun A14 () Bool)
(declare-fun A15 () Bool)
(declare-fun A16 () Bool)
(declare-fun A17 () Bool)
(declare-fun A18 () Bool)
(declare-fun A19 () Bool)
(declare-fun A20 () Bool)
(declare-fun A21 () Bool)
(declare-fun A22 () Bool)
(declare-fun A23 () Bool)
(declare-fun A24 () Bool)
(assert (let ((.def_0 (not A20))) (let ((.def_1 (or A3 .def_0))) (let ((.def_2 (not A22))) (let ((.def_3 (or .def_2 A6))) (let ((.def_4 (and .def_3 .def_1))) (let ((.def_5 (not .def_4))) (let ((.def_6 (and A9 .def_0))) (let ((.def_7 (not .def_6))) (let ((.def_8 (not A5))) (let ((.def_9 (and .def_8 A23))) (let ((.def_10 (= .def_9 .def_7))) (let ((.def_11 (and .def_10 .def_5))) (let ((.def_12 (not A15))) (let ((.def_13 (not A16))) (let ((.def_14 (and .def_13 .def_12))) (let ((.def_15 (not .def_14))) (let ((.def_16 (and .def_0 A21))) (let ((.def_17 (not .def_16))) (let ((.def_18 (or .def_17 .def_15))) (let ((.def_19 (not .def_18))) (let ((.def_20 (not A2))) (let ((.def_21 (and .def_20 .def_12))) (let ((.def_22 (not .def_21))) (let ((.def_23 (or .def_20 A23))) (let ((.def_24 (and .def_23 .def_22))) (let ((.def_25 (not .def_24))) (let ((.def_26 (and .def_25 .def_19))) (let ((.def_27 (and .def_26 .def_11))) (let ((.def_28 (not .def_27))) (let ((.def_29 (= A18 A12))) (let ((.def_30 (not .def_29))) (let ((.def_31 (or A10 .def_12))) (let ((.def_32 (not .def_31))) (let ((.def_33 (or .def_32 .def_30))) (let ((.def_34 (not .def_33))) (let ((.def_35 (not A24))) (let ((.def_36 (and A9 .def_35))) (let ((.def_37 (not .def_36))) (let ((.def_38 (not A17))) (let ((.def_39 (and .def_38 A22))) (let ((.def_40 (or .def_39 .def_37))) (let ((.def_41 (not .def_40))) (let ((.def_42 (= .def_41 .def_34))) (let ((.def_43 (not .def_42))) (let ((.def_44 (and .def_20 A7))) (let ((.def_45 (not .def_44))) (let ((.def_46 (not A6))) (let ((.def_47 (and .def_46 .def_8))) (let ((.def_48 (not .def_47))) (let ((.def_49 (and .def_48 .def_45))) (let ((.def_50 (not .def_49))) (let ((.def_51 (or .def_35 A11))) (let ((.def_52 (and A1 .def_12))) (let ((.def_53 (not .def_52))) (let ((.def_54 (or .def_53 .def_51))) (let ((.def_55 (and .def_54 .def_50))) (let ((.def_56 (not .def_55))) (let ((.def_57 (or .def_56 .def_43))) (let ((.def_58 (not .def_57))) (let ((.def_59 (and .def_58 .def_28))) (let ((.def_60 (not A21))) (let ((.def_61 (and A11 .def_60))) (let ((.def_62 (or A16 A15))) (let ((.def_63 (not .def_62))) (let ((.def_64 (or .def_63 .def_61))) (let ((.def_65 (not A1))) (let ((.def_66 (and .def_65 .def_13))) (let ((.def_67 (not .def_66))) (let ((.def_68 (and .def_13 A19))) (let ((.def_69 (not .def_68))) (let ((.def_70 (and .def_69 .def_67))) (let ((.def_71 (not .def_70))) (let ((.def_72 (and .def_71 .def_64))) (let ((.def_73 (not .def_72))) (let ((.def_74 (not A8))) (let ((.def_75 (= .def_74 A17))) (let ((.def_76 (not .def_75))) (let ((.def_77 (not A13))) (let ((.def_78 (and A12 .def_77))) (let ((.def_79 (and .def_78 .def_76))) (let ((.def_80 (not A14))) (let ((.def_81 (not A23))) (let ((.def_82 (or .def_81 .def_80))) (let ((.def_83 (or A17 .def_38))) (let ((.def_84 (not .def_83))) (let ((.def_85 (or .def_84 .def_82))) (let ((.def_86 (or .def_85 .def_79))) (let ((.def_87 (not .def_86))) (let ((.def_88 (and .def_87 .def_73))) (let ((.def_89 (not .def_88))) (let ((.def_90 (not A19))) (let ((.def_91 (or A21 .def_90))) (let ((.def_92 (not .def_91))) (let ((.def_93 (and .def_90 A18))) (let ((.def_94 (not .def_93))) (let ((.def_95 (or .def_94 .def_92))) (let ((.def_96 (or .def_8 A6))) (let ((.def_97 (not .def_96))) (let ((.def_98 (or .def_13 A3))) (let ((.def_99 (not .def_98))) (let ((.def_100 (or .def_99 .def_97))) (let ((.def_101 (= .def_100 .def_95))) (let ((.def_102 (not .def_101))) (let ((.def_103 (not A10))) (let ((.def_104 (or .def_103 .def_46))) (let ((.def_105 (not A3))) (let ((.def_106 (or A9 .def_105))) (let ((.def_107 (and .def_106 .def_104))) (let ((.def_108 (not .def_107))) (let ((.def_109 (or A6 .def_2))) (let ((.def_110 (not .def_109))) (let ((.def_111 (and .def_74 A16))) (let ((.def_112 (and .def_111 .def_110))) (let ((.def_113 (or .def_112 .def_108))) (let ((.def_114 (not .def_113))) (let ((.def_115 (and .def_114 .def_102))) (let ((.def_116 (not .def_115))) (let ((.def_117 (or .def_116 .def_89))) (let ((.def_118 (or .def_117 .def_59))) (let ((.def_119 (not .def_118))) (let ((.def_120 (or A24 A10))) (let ((.def_121 (and .def_105 A16))) (let ((.def_122 (or .def_121 .def_120))) (let ((.def_123 (not .def_122))) (let ((.def_124 (or .def_74 .def_77))) (let ((.def_125 (not .def_124))) (let ((.def_126 (or .def_13 .def_60))) (let ((.def_127 (not .def_126))) (let ((.def_128 (and .def_127 .def_125))) (let ((.def_129 (not .def_128))) (let ((.def_130 (= .def_129 .def_123))) (let ((.def_131 (and A16 .def_90))) (let ((.def_132 (or .def_80 A24))) (let ((.def_133 (and .def_132 .def_131))) (let ((.def_134 (not .def_133))) (let ((.def_135 (not A9))) (let ((.def_136 (and A1 .def_135))) (let ((.def_137 (not .def_136))) (let ((.def_138 (not A4))) (let ((.def_139 (or .def_138 A5))) (let ((.def_140 (not .def_139))) (let ((.def_141 (or .def_140 .def_137))) (let ((.def_142 (or .def_141 .def_134))) (let ((.def_143 (not .def_142))) (let ((.def_144 (or .def_143 .def_130))) (let ((.def_145 (not A0))) (let ((.def_146 (and .def_46 .def_145))) (let ((.def_147 (or A5 .def_20))) (let ((.def_148 (or .def_147 .def_146))) (let ((.def_149 (or A7 .def_8))) (let ((.def_150 (not .def_149))) (let ((.def_151 (= A24 .def_0))) (let ((.def_152 (not .def_151))) (let ((.def_153 (or .def_152 .def_150))) (let ((.def_154 (not .def_153))) (let ((.def_155 (or .def_154 .def_148))) (let ((.def_156 (not .def_155))) (let ((.def_157 (not A12))) (let ((.def_158 (or .def_60 .def_157))) (let ((.def_159 (not .def_158))) (let ((.def_160 (and A12 A4))) (let ((.def_161 (and .def_160 .def_159))) (let ((.def_162 (not .def_161))) (let ((.def_163 (or A19 .def_77))) (let ((.def_164 (and .def_157 A7))) (let ((.def_165 (not .def_164))) (let ((.def_166 (or .def_165 .def_163))) (let ((.def_167 (not .def_166))) (let ((.def_168 (= .def_167 .def_162))) (let ((.def_169 (and .def_168 .def_156))) (let ((.def_170 (or .def_169 .def_144))) (let ((.def_171 (not A7))) (let ((.def_172 (and .def_0 .def_171))) (let ((.def_173 (not .def_172))) (let ((.def_174 (or A4 A9))) (let ((.def_175 (= .def_174 .def_173))) (let ((.def_176 (= .def_103 .def_12))) (let ((.def_177 (not .def_176))) (let ((.def_178 (not A18))) (let ((.def_179 (and .def_80 .def_178))) (let ((.def_180 (or .def_179 .def_177))) (let ((.def_181 (not .def_180))) (let ((.def_182 (or .def_181 .def_175))) (let ((.def_183 (or .def_105 .def_105))) (let ((.def_184 (or .def_81 .def_171))) (let ((.def_185 (or .def_184 .def_183))) (let ((.def_186 (not .def_185))) (let ((.def_187 (or .def_38 .def_171))) (let ((.def_188 (and .def_77 A20))) (let ((.def_189 (not .def_188))) (let ((.def_190 (or .def_189 .def_187))) (let ((.def_191 (or .def_190 .def_186))) (let ((.def_192 (not .def_191))) (let ((.def_193 (and .def_192 .def_182))) (let ((.def_194 (or A5 A16))) (let ((.def_195 (not .def_194))) (let ((.def_196 (and A0 A7))) (let ((.def_197 (or .def_196 .def_195))) (let ((.def_198 (not .def_197))) (let ((.def_199 (and A10 A7))) (let ((.def_200 (not A11))) (let ((.def_201 (or .def_135 .def_200))) (let ((.def_202 (not .def_201))) (let ((.def_203 (and .def_202 .def_199))) (let ((.def_204 (not .def_203))) (let ((.def_205 (and .def_204 .def_198))) (let ((.def_206 (not .def_205))) (let ((.def_207 (or .def_2 A11))) (let ((.def_208 (not .def_207))) (let ((.def_209 (or .def_171 A3))) (let ((.def_210 (not .def_209))) (let ((.def_211 (or .def_210 .def_208))) (let ((.def_212 (not .def_211))) (let ((.def_213 (or A21 A23))) (let ((.def_214 (not .def_213))) (let ((.def_215 (or A24 A24))) (let ((.def_216 (and .def_215 .def_214))) (let ((.def_217 (and .def_216 .def_212))) (let ((.def_218 (not .def_217))) (let ((.def_219 (or .def_218 .def_206))) (let ((.def_220 (not .def_219))) (let ((.def_221 (and .def_220 .def_193))) (let ((.def_222 (or .def_221 .def_170))) (let ((.def_223 (or .def_222 .def_119))) (let ((.def_224 (or A8 A19))) (let ((.def_225 (and A3 .def_145))) (let ((.def_226 (or .def_225 .def_224))) (let ((.def_227 (or .def_103 A24))) (let ((.def_228 (and .def_77 .def_135))) (let ((.def_229 (and .def_228 .def_227))) (let ((.def_230 (or .def_229 .def_226))) (let ((.def_231 (and .def_157 .def_12))) (let ((.def_232 (not .def_231))) (let ((.def_233 (and .def_2 A6))) (let ((.def_234 (not .def_233))) (let ((.def_235 (and .def_234 .def_232))) (let ((.def_236 (not .def_235))) (let ((.def_237 (and .def_178 .def_135))) (let ((.def_238 (and A19 A1))) (let ((.def_239 (not .def_238))) (let ((.def_240 (or .def_239 .def_237))) (let ((.def_241 (or .def_240 .def_236))) (let ((.def_242 (and .def_241 .def_230))) (let ((.def_243 (and .def_135 A2))) (let ((.def_244 (or .def_103 .def_77))) (let ((.def_245 (not .def_244))) (let ((.def_246 (or .def_245 .def_243))) (let ((.def_247 (and .def_20 .def_145))) (let ((.def_248 (or .def_103 A1))) (let ((.def_249 (not .def_248))) (let ((.def_250 (and .def_249 .def_247))) (let ((.def_251 (not .def_250))) (let ((.def_252 (and .def_251 .def_246))) (let ((.def_253 (not .def_252))) (let ((.def_254 (or A16 A17))) (let ((.def_255 (not .def_254))) (let ((.def_256 (= A3 .def_8))) (let ((.def_257 (and .def_256 .def_255))) (let ((.def_258 (not .def_257))) (let ((.def_259 (and .def_171 .def_0))) (let ((.def_260 (not .def_259))) (let ((.def_261 (and A14 A4))) (let ((.def_262 (not .def_261))) (let ((.def_263 (or .def_262 .def_260))) (let ((.def_264 (not .def_263))) (let ((.def_265 (or .def_264 .def_258))) (let ((.def_266 (or .def_265 .def_253))) (let ((.def_267 (or .def_266 .def_242))) (let ((.def_268 (and A5 A1))) (let ((.def_269 (and .def_171 .def_138))) (let ((.def_270 (not .def_269))) (let ((.def_271 (and .def_270 .def_268))) (let ((.def_272 (or A20 .def_103))) (let ((.def_273 (or A3 .def_138))) (let ((.def_274 (not .def_273))) (let ((.def_275 (or .def_274 .def_272))) (let ((.def_276 (or .def_275 .def_271))) (let ((.def_277 (not .def_276))) (let ((.def_278 (and .def_178 A16))) (let ((.def_279 (and A14 .def_35))) (let ((.def_280 (not .def_279))) (let ((.def_281 (or .def_280 .def_278))) (let ((.def_282 (not .def_281))) (let ((.def_283 (not .def_196))) (let ((.def_284 (or A6 A5))) (let ((.def_285 (not .def_284))) (let ((.def_286 (or .def_285 .def_283))) (let ((.def_287 (and .def_286 .def_282))) (let ((.def_288 (and .def_287 .def_277))) (let ((.def_289 (or A20 A22))) (let ((.def_290 (not .def_289))) (let ((.def_291 (and A11 .def_2))) (let ((.def_292 (= .def_291 .def_290))) (let ((.def_293 (or A1 A9))) (let ((.def_294 (or .def_145 .def_105))) (let ((.def_295 (and .def_294 .def_293))) (let ((.def_296 (not .def_295))) (let ((.def_297 (and .def_296 .def_292))) (let ((.def_298 (not .def_297))) (let ((.def_299 (or A6 A16))) (let ((.def_300 (not .def_299))) (let ((.def_301 (= .def_145 .def_171))) (let ((.def_302 (or .def_301 .def_300))) (let ((.def_303 (not .def_302))) (let ((.def_304 (or .def_77 A7))) (let ((.def_305 (and A23 A24))) (let ((.def_306 (not .def_305))) (let ((.def_307 (or .def_306 .def_304))) (let ((.def_308 (or .def_307 .def_303))) (let ((.def_309 (not .def_308))) (let ((.def_310 (= .def_309 .def_298))) (let ((.def_311 (not .def_310))) (let ((.def_312 (or .def_311 .def_288))) (let ((.def_313 (not .def_312))) (let ((.def_314 (or .def_313 .def_267))) (let ((.def_315 (or A22 .def_65))) (let ((.def_316 (= .def_90 .def_2))) (let ((.def_317 (not .def_316))) (let ((.def_318 (and .def_317 .def_315))) (let ((.def_319 (and .def_105 A20))) (let ((.def_320 (not .def_319))) (let ((.def_321 (= A9 .def_145))) (let ((.def_322 (not .def_321))) (let ((.def_323 (= .def_322 .def_320))) (let ((.def_324 (and .def_323 .def_318))) (let ((.def_325 (= A13 A16))) (let ((.def_326 (and A7 A6))) (let ((.def_327 (and .def_326 .def_325))) (let ((.def_328 (and .def_90 A7))) (let ((.def_329 (not .def_328))) (let ((.def_330 (and A11 .def_138))) (let ((.def_331 (or .def_330 .def_329))) (let ((.def_332 (not .def_331))) (let ((.def_333 (and .def_332 .def_327))) (let ((.def_334 (or .def_333 .def_324))) (let ((.def_335 (not .def_334))) (let ((.def_336 (or .def_138 A1))) (let ((.def_337 (not .def_336))) (let ((.def_338 (and A7 A7))) (let ((.def_339 (not .def_338))) (let ((.def_340 (and .def_339 .def_337))) (let ((.def_341 (not .def_340))) (let ((.def_342 (or A1 A19))) (let ((.def_343 (or .def_65 A11))) (let ((.def_344 (not .def_343))) (let ((.def_345 (or .def_344 .def_342))) (let ((.def_346 (not .def_345))) (let ((.def_347 (and .def_346 .def_341))) (let ((.def_348 (= .def_13 .def_77))) (let ((.def_349 (or .def_157 .def_135))) (let ((.def_350 (not .def_349))) (let ((.def_351 (= .def_350 .def_348))) (let ((.def_352 (or A3 A11))) (let ((.def_353 (not .def_352))) (let ((.def_354 (or .def_8 .def_145))) (let ((.def_355 (not .def_354))) (let ((.def_356 (= .def_355 .def_353))) (let ((.def_357 (not .def_356))) (let ((.def_358 (and .def_357 .def_351))) (let ((.def_359 (and .def_358 .def_347))) (let ((.def_360 (not .def_359))) (let ((.def_361 (and .def_360 .def_335))) (let ((.def_362 (not .def_361))) (let ((.def_363 (or A5 .def_200))) (let ((.def_364 (and A5 .def_77))) (let ((.def_365 (not .def_364))) (let ((.def_366 (and .def_365 .def_363))) (let ((.def_367 (not .def_366))) (let ((.def_368 (and .def_74 A17))) (let ((.def_369 (not .def_368))) (let ((.def_370 (and .def_200 .def_81))) (let ((.def_371 (or .def_370 .def_369))) (let ((.def_372 (or .def_371 .def_367))) (let ((.def_373 (or A21 .def_200))) (let ((.def_374 (not .def_373))) (let ((.def_375 (or .def_178 A7))) (let ((.def_376 (= .def_375 .def_374))) (let ((.def_377 (or A9 A7))) (let ((.def_378 (not .def_377))) (let ((.def_379 (or .def_38 A20))) (let ((.def_380 (and .def_379 .def_378))) (let ((.def_381 (not .def_380))) (let ((.def_382 (and .def_381 .def_376))) (let ((.def_383 (and .def_382 .def_372))) (let ((.def_384 (= .def_13 A21))) (let ((.def_385 (or .def_127 .def_384))) (let ((.def_386 (not .def_385))) (let ((.def_387 (and A0 .def_178))) (let ((.def_388 (not .def_387))) (let ((.def_389 (or .def_20 A8))) (let ((.def_390 (not .def_389))) (let ((.def_391 (and .def_390 .def_388))) (let ((.def_392 (and .def_391 .def_386))) (let ((.def_393 (not .def_392))) (let ((.def_394 (and .def_178 .def_20))) (let ((.def_395 (not .def_394))) (let ((.def_396 (or .def_135 A10))) (let ((.def_397 (= .def_396 .def_395))) (let ((.def_398 (and .def_80 A15))) (let ((.def_399 (and .def_81 .def_2))) (let ((.def_400 (not .def_399))) (let ((.def_401 (or .def_400 .def_398))) (let ((.def_402 (= .def_401 .def_397))) (let ((.def_403 (not .def_402))) (let ((.def_404 (or .def_403 .def_393))) (let ((.def_405 (not .def_404))) (let ((.def_406 (or .def_405 .def_383))) (let ((.def_407 (not .def_406))) (let ((.def_408 (or .def_407 .def_362))) (let ((.def_409 (not .def_408))) (let ((.def_410 (and .def_409 .def_314))) (let ((.def_411 (not .def_410))) (let ((.def_412 (or .def_411 .def_223))) .def_412))))))))))))))))))))))))))))))))))))))))))))))))))))))))))))))))))))))))))))))))))))))))))))))))))))))))))))))))))))))))))))))))))))))))))))))))))))))))))))))))))))))))))))))))))))))))))))))))))))))))))))))))))))))))))))))))))))))))))))))))))))))))))))))))))))))))))))))))))))))))))))))))))))))))))))))))))))))))))))))))))))))))))))))))))))))))))))))))))))))))))))))))))))))))))))))))))))))))))))))))))))))))))))))
(check-sat)
